(set-logic QF_S)
(declare-fun B () String)
(declare-fun H () String)
(declare-fun G () String)
(declare-fun F () String)
(declare-fun A () String)
(declare-fun C () String)
(declare-fun D () String)
(assert (= (str.++  "acdadaeadbacaecd" H "dcaecdedbdebeceabbeaebbdebddddecbaebcb")  (str.++  "acdadaeadbacaecdecb" A "bdebddddecbaebcb") ))
(assert (= (str.++  "ceddaedeeeeababcbbab" H "cbcceceebdbcdabbcbb")  (str.++  "ceddaedeeeeababc" A "dbcdabbcbb") ))
(assert (= (str.++  "beeeadebddcbdbbddacdebbbccdcbaccbb" C "decdabda")  (str.++  "beeeadebddcbdbbddacdebbbccd" A "cabecdecdabda") ))
(assert (= (str.++  "cdbaddb" D "eebeacebbdebdcebab" A "cd")  (str.++  "cdbaddb" D "eebeacebbdebdcebab" A "cd") ))
(assert (= (str.++  "e" D "aacbaebbbdddeaedebbacceecccd")  (str.++  "ecadbbbaadedeb" G "bbacceecccd") ))
(assert (= (str.++  "bcaabbcdcdaedeeeeeadbeaaaccceaaaeecaebdaebbedbadb" C "aeddbdcddddadbccdabedeeadeebcca")  (str.++  "bcaabbcdcdaedeeeeeadbeaaaccceaaaeecaebdaebbedbadbebdbaaeddbdcddddadbccdabedeeadeebcca" "") ))
(assert (= (str.++  "daadceddbabdbbeaadedaccebedbdddbbcacedadbddceaceddaacddbaeee" C "deaedbbddcdccbaabeab")  (str.++  "daadceddbabdbbeaadedaccebedbdddbbcacedadbddceaceddaacddbaeee" C "deaedbbddcdccbaabeab") ))
(assert (= (str.++  "bdbeddcdeebbacadbaabbcaacedccbacbeeeeecdeebadabcadcbabaabebdbaeddbcbabddaeeeecececbad" "")  (str.++  "bdbeddcdeebbacadbaabbcaacedccbacbeeeeecdeebadabcadcbabaab" C "eddbcbabddaeeeecececbad") ))
(assert (= (str.++  "dddaaabededbcebaceaaccccaabbdadcbdabddbebcaebbbaaabeedcdedbeeccaadebbacdebcdbdad" C)  (str.++  "dddaaabededbcebaceaaccccaabbdadcbdabddbebcaebbbaaabeedcdedbeeccaadebbacdebcdbdad" C) ))
(assert (= (str.++  "acaddbdcebbcecedebbedcabcaebeeeebbbbaaccabaddbdeeeeddabc" C "eeaeeeecedabeeddaaebdbac")  (str.++  "acaddbdcebbcecedebbedcabcaebeeeebbbbaaccabaddbdeeeeddabcebdbaeeaeeeecedabeeddaa" C "c") ))
(assert (= (str.++  "beedbadedcebbdbadedbdaacdbbdeadadebedabdd" C "edddadaeeaacadbaedebdcceabbabcdbededbbd")  (str.++  "beedbadedcebbdbadedbdaacdbbdeadadebedabddebdbaedddadaeeaacadbaedebdcceabbabcdbededbbd" "") ))
(assert (= (str.++  "eadadbeadcbaddeccdaabebdcbccccceaeadabbeaeaeddebeeedceaab" C "cbcaeababbdcaecbeeeedeb")  (str.++  "eadadbeadcbaddeccdaabebdcbccccceaeadabbeaeaeddebeeedceaab" C "cbcaeababbdcaecbeeeedeb") ))
(assert (= (str.++  "adcaeedcacebccebebbacdcaebaacdeaecaeeaeeaccdabcdedcecbacecaacbebdbaadcdebedbbbaedadba" "")  (str.++  "adcaeedcacebccebebbacdcaebaacdeaecaeeaeeaccdabcdedcecbacecaacb" C "adcdebedbbbaedadba") ))
(assert (= (str.++  "caececaddecbaeaccacadea" C "bacdeaaaabeacadcbaadecacdabbcdcaadbeeddcabaeadabdbabdddba")  (str.++  "caececaddecbaeaccacadea" C "bacdeaaaabeacadcbaadecacdabbcdcaadbeeddcabaeadabdbabdddba") ))
(assert (= (str.++  "ccebbbcdaeeabbdebdeaaecbbddbcddaecbceacccecbcaeecdacecaeebdbaeeedadebaeeedacbbdeabbab" "")  (str.++  "ccebbbcdaeeabbdebdeaaecbbddbcddaecbceacccecbcaeecdacecae" C "eeedadebaeeedacbbdeabbab") ))
(assert (= (str.++  "dcaaedbbcbab" C "eaaadaabadcecaaadccbcaebdcbeadcedbebccdcccbebceebdedecdcebdddaecdbab")  (str.++  "dcaaedbbcbabebdbaeaaadaabadcecaaadccbcaebdcbeadcedbebccdcccbebceebdedecdcebdddaecdbab" "") ))
(assert (= (str.++  "ccbbccbeeebaeee" C "ecccbdddabbebbacdeeededecddeaeebeeeadaedadaabdbaabbbaedbcbcdbebaa")  (str.++  "ccbbccbeeebaeee" C "ecccbdddabbebbacdeeededecddeaeebeeeadaedadaabdbaabbbaedbcbcdbebaa") ))
(assert (= (str.++  "ebaeaaabaeebedcabccccceaaacecebee" C "cbabdbeabbceadecbabdacdebcadcedbcdaaebdcdedacae")  (str.++  "ebaeaaabaeebedcabccccceaaacecebee" C "cbabdbeabbceadecbabdacdebcadcedbcdaaebdcdedacae") ))
(assert (= (str.++  "dbdebccbdeeaadbbdedccaddecbacaabdcaedcbaeabcedaebcaabbe" C "edecbaabddeaddedcbebbebca")  (str.++  "dbdebccbdeeaadbbdedccaddecbacaabdcaedcbaeabcedaebcaabbeebdbaedecbaabddeaddedcbebbebca" "") ))
(assert (= (str.++  "badcdbccaabbebcadbedcbcdaddbbdabbdadcdbdecebcadbeaaccaeaeebeebdbaeeaadabcedcadcedebdc" "")  (str.++  "badcdbccaabbebcadbedcbcdaddbbdabbdadcdbdecebcadbeaaccaeaeebe" C "eeaadabcedcadcedebdc") ))
(assert (= (str.++  "eeecaabacccdabbeebdbdbcbdbeaaeebdbacbcacebdcbeeeddaddaaaabeedcccaeaedbcdbdebbdddabbde" "")  (str.++  "eeecaabacccdabbeebdbdbcbdbeaae" C "cbcacebdcbeeeddaddaaaabeedcccaeaedbcdbdebbdddabbde") ))
(assert (= (str.++  "cbbeceaebebeacedccebeebddbcbeabdcacaebcbeccaeceaccabdcaedaaeaec" C "beeedcdddcccbeebb")  (str.++  "cbbeceaebebeacedccebeebddbcbeabdcacaebcbeccaeceaccabdcaedaaeaec" C "beeedcdddcccbeebb") ))
(assert (= (str.++  "dbeaedebbcebb" C "eadbaadbeaddcdbdceeeceaaacdcbebeaceebbeadeecceedccecbadbbbceeeccead")  (str.++  "dbeaedebbcebb" C "eadbaadbeaddcdbdceeeceaaacdcbebeaceebbeadeecceedccecbadbbbceeeccead") ))
(assert (= (str.++  "cdadebbbd" C "badbdbccecdbdeebceebcdbcaaedaacaeaddddbdacedcebebaaaeccbdaedabbdcdddcac")  (str.++  "cdadebbbd" C "badbdbccecdbdeebceebcdbcaaedaacaeaddddbdacedcebebaaaeccbdaedabbdcdddcac") ))
(assert (= (str.++  "dcdd" B "acc" D "badaaadeadcdccabeaabdcbaeccbbeccdbdecbab")  (str.++  "dc" G "dbccaacbaeedaca" F "b") ))
(assert (= (str.++  "eecaceeedabbeaadcdaeadaccbdceadbaaeccacdb" B "edbbedaecbdccddcabcabbbbdeeedddbbacebce")  (str.++  "eecaceeedabbeaadcdaeadaccbdceadbaaeccacdb" B "edbbedaecbdccddcabcabbbbdeeedddbbacebce") ))
(assert (= (str.++  "ccbebabdccbcdddeaebacabcbbddabaeacaaaebadacdcbbbaccdaadbecdeacaceddadeecbccddebeaabee" "")  (str.++  "ccbebabdccbcdddeaebacabcbbddabaeacaaaebadacdcbbba" B "dbecdeacaceddadeecbccddebeaabee") ))
(assert (= (str.++  "baebedceabccdaaabbadcebabebaaacaabcbcdacadebceeebcaeebaeeaccacbabbcbdddebabaddcccdcbc" "")  (str.++  "baebedceab" B "abbadcebabebaaacaabcbcdacadebceeebcaeebaeeaccacbabbcbdddebabaddcccdcbc") ))
(assert (= (str.++  "cacebdeacbdacddabdcdbeabdadcdbcaccededeedcaedbedbcbdcdaac" B "bbeebcbcbbbcbebebdebbab")  (str.++  "cacebdeacbdacddabdcdbeabdadcdbcaccededeedcaedbedbcbdcdaacccdaabbeebcbcbbbcbebebdebbab" "") ))
(assert (= (str.++  "bcbcbdcaedbdbadcbbddcdccedadabedcdc" B "dbcdadcdedcaacdacbcdecbedeecadcadaccdbdbeeede")  (str.++  "bcbcbdcaedbdbadcbbddcdccedadabedcdc" B "dbcdadcdedcaacdacbcdecbedeecadcadaccdbdbeeede") ))
(assert (= (str.++  "cdbdebddccebebcdcdbd" B "ddbadcdbcceecbaadcdaaabebebdcdbeebabceecedccaebcdcccaadcbcde")  (str.++  "cdbdebddccebebcdcdbdccdaaddbadcdbcceecbaadcdaaabebebdcdbeebabceecedccaebcdcccaadcbcde" "") ))
(assert (= (str.++  "bccccbecaddbaccaaaabcedbbedecccdaacedbbecccbabcbecbeadacedceebdcaabeddceeabedbddebbec" "")  (str.++  "bccccbecaddbaccaaaabcedbbedec" B "cedbbecccbabcbecbeadacedceebdcaabeddceeabedbddebbec") ))
(assert (= (str.++  "eacbadecbabdaeeaadbdcbebbdddeecbdaabebcadcdbccdaaedaedcbccaaeacbaeeccadddbadeabdbdebd" "")  (str.++  "eacbadecbabdaeeaadbdcbebbdddeecbdaabebcadcdb" B "edaedcbccaaeacbaeeccadddbadeabdbdebd") ))
(assert (= (str.++  "cdbbbcddeadaebbbaaeaadcddcedadabbddebeaecccddaadbdebcbebebccdaaebeccdcacaeabcbebebdbe" "")  (str.++  "cdbbbcddeadaebbbaaeaadcddcedadabbddebeaecccddaadbdebcbebeb" B "ebeccdcacaeabcbebebdbe") ))
(assert (= (str.++  B "ccdbdbdedcddbabacaddadbdcaebbcbcabdcdbdbcccdebcdabaacebeddabcacbbdceaebeadaddbbe" "")  (str.++  B "ccdbdbdedcddbabacaddadbdcaebbcbcabdcdbdbcccdebcdabaacebeddabcacbbdceaebeadaddbbe" "") ))
(assert (= (str.++  "ccbeadd" B "edcceabaedbaabbcaebbbeccacbecbdbeaddcdcdebcebddbaedeccbbddbacbadaacbecdba")  (str.++  "ccbeaddccdaaedcceabaedbaabbcaebbbeccacbecbdbeaddcdcdebcebddbaedeccbbddbacbadaacbecdba" "") ))
(assert (= (str.++  "bccbdbacbecccdaabdcddcaaaceddbbbeaccbeececbbcbecbdbcdcdadbdcbbbbeeadeacacdbdeceaeecec" "")  (str.++  "bccbdbacbec" B "bdcddcaaaceddbbbeaccbeececbbcbecbdbcdcdadbdcbbbbeeadeacacdbdeceaeecec") ))
(assert (= (str.++  "bbbcedadaceaaacdbbdeeedbecedebbebaeadcadccaccaacadaebedbbabacbbbd" B "eadbcccacbccbcd")  (str.++  "bbbcedadaceaaacdbbdeeedbecedebbebaeadcadccaccaacadaebedbbabacbbbd" B "eadbcccacbccbcd") ))
(assert (= (str.++  "eedddbbb" B "acdbbdaddeeaccededebdebcdbadeaccacbbbcedebbcaccbbbaaddeabbbceccdcebdaeca")  (str.++  "eedddbbb" B "acdbbdaddeeaccededebdebcdbadeaccacbbbcedebbcaccbbbaaddeabbbceccdcebdaeca") ))
(assert (= (str.++  "cbbdceeeebcacaeadbacbbdeddeceaca" B "eddaabbbcbdcedeccddaacaacabaeddedbbaaddcbaaaeeaa")  (str.++  "cbbdceeeebcacaeadbacbbdeddeceaca" B "eddaabbbcbdcedeccddaacaacabaeddedbbaaddcbaaaeeaa") ))
(assert (= (str.++  "eccbdcabeeaccdaacadbedbbbabeeeacaaccbaacbdbddbbdaabbabdadaccacdccecbdcaeadbdcbbaddcde" "")  (str.++  "eccbdcabeea" B "cadbedbbbabeeeacaaccbaacbdbddbbdaabbabdadaccacdccecbdcaeadbdcbbaddcde") ))
(assert (= (str.++  "eaddcdabeebaebddacdaececabcbadbebcdbdcebbcacaebeabaeeaecdebbdddbdcccaeabeeada" B "dba")  (str.++  "eaddcdabeebaebddacdaececabcbadbebcdbdcebbcacaebeabaeeaecdebbdddbdcccaeabeeada" B "dba") ))
(assert (= (str.++  "bbaccdbcbcceaeedaecbacedeebecabeeeaedeaeecccdecddebdeeacaacccdaaecceaaadecdaddadeacbb" "")  (str.++  "bbaccdbcbcceaeedaecbacedeebecabeeeaedeaeecccdecddebdeeacaac" B "ecceaaadecdaddadeacbb") ))
(assert (= (str.++  "cbcddbadaebccdebbaebcceacebaecce" B "babcddbcdaceddabaeacdeaaaeccdcdabbdedbceeaccebbc")  (str.++  "cbcddbadaebccdebbaebcceacebaecceccdaababcddbcdaceddabaeacdeaaaeccdcdabbdedbceeaccebbc" "") ))
(assert (= (str.++  "cadcabb" B "aceeaadaceceebbbcabbbadedaecdeedeccdecaebedebdacebacbbabdeedadceecabaeeac")  (str.++  "cadcabbccdaaaceeaadaceceebbbcabbbadedaecdeedeccdecaebedebdacebacbbabdeedadceecabaeeac" "") ))
(assert (= (str.++  "dddeeedcaacdededeaeedbbccddccbed" H "addbbabdeecdbbdaedabdcaabaebcbabccccbc")  (str.++  "ddde" A "caabaebcbabccccbc") ))
(assert (= (str.++  "eebededbbcaececdbbbbddddecedbbcdebcdbaadd" H "cbedebdabeceaaeccaacadacceeeaeeaadeccdaba")  (str.++  "eebededbbcaececd" G "aba") ))
(assert (= (str.++  "ddabbdcccddaaccacacacaaaba" A "dabadcaedeaabaabaaacdbddcdcdabadcdaedbdcabbcccebebacdaee")  (str.++  "ddabbdcccddaaccacacacaaaba" A "dabadcaedeaabaabaaacdbddcdcdabadcdaedbdcabbcccebebacdaee") ))
(assert (= (str.++  "acbacbadbbbebcbe" A "adcdeabcecbbbcbdaaebdcccdbdcdedcdbaccbcddeaadadadbdecedadbadbbaeab")  (str.++  "acbacbadbbbebcbeedbadcdeabcecbbbcbdaaebdcccdbdcd" H "dbaccbcddeaadadadbdecedadbadbbaeab") ))
(assert (= (str.++  "daaeeceacababccadacccebeecdceedcdddbcccdbbadbcdbdbcdacbbadbcbcdbdccccdabdcdbdb" A "caea")  (str.++  "daaeeceacababccadacccebeecdceedcdddbcccdbbadbcdbdbcdacbbadbcbcdbdccccdabdcdbdbedbcaea" "") ))
(assert (= (str.++  "badaadcaeddacbbdaccacaeeaad" H "cbacbaecdddbbaadcbadaebbcabeccaaaaecadcbdceabceaebbebda")  (str.++  "badaadcaeddacbbdaccacaeeaadedccbacbaecdddbbaadcbadaebbcabeccaaaaecadcbdceabceaebbebda" "") ))
(assert (= (str.++  "ddebeecdcaecbdecbabbadacdaeeedaacdbb" H "ebeacadcadbdbaeccbbdcbe" H "abccbdbbbbcbbaeadcdb")  (str.++  "ddebeecdcaecbdecbabbadacdaeeedaacdbbedcebeacadcadbdbaeccbbdcbe" H "abccbdbbbbcbbaeadcdb") ))
(assert (= (str.++  "daedbeeccbbddadbebaacdececaaebbcaabbaccbaedddeebbdbcaababcadaaedcbcbdddabcbcdbededace" "")  (str.++  "daedbeeccbbddadbebaacdececaaebbcaabbaccbaedddeebbdbcaababcadaa" H "bcbdddabcbcdbededace") ))
(assert (= (str.++  "daeaeacaedccaebbeedcdbbeadbebdabbeddbabeecc" A "cdbceacabbecebedadaaaaecbdeddecbabdabad")  (str.++  "daeaeaca" H "caebbeedcdbbeadbebdabbeddbabeeccedbcdbceacabbecebedadaaaaecbdeddecbabdabad") ))
(assert (= (str.++  "bbcbbeeacadedcbbccbcbdbcddabbadbabbdabdaabcdeacacadbbebbbbabcdd" H "eebabeceeeeeeaebbde")  (str.++  "bbcbbeeacad" H "bbccbcbdbcddabbadbabbdabdaabcdeacacadbbebbbbabcdd" H "eebabeceeeeeeaebbde") ))
(assert (= (str.++  "aed" H "caececcebbcbdcaccaadddddceccebaaccdaeecaacaedaaeebcebcdabaccbeebbadecdaabaeabad")  (str.++  "aed" H "caececcebbcbdcaccaadddddceccebaaccdaeecaacaedaaeebcebcdabaccbeebbadecdaabaeabad") ))
(assert (= (str.++  "aedbcceebaeeadeacbdadbccdbaaaceeeddabbbdccdcbecaabad" H "deeeadebbadcbcadcbbbcedaaeadce")  (str.++  "aedbcceebaeeadeacbdadbccdbaaaceeeddabbbdccdcbecaabadedcdeeeadebbadcbcadcbbbcedaaeadce" "") ))
(assert (= (str.++  "bade" H "bcbbbeedcceebccdcdbcdbdabaabebbbddbbabdcaaabeacbcbbaeddbabbdaaeaecedadcdedaabd")  (str.++  "bade" H "bcbbbeedcceebccdcdbcdbdabaabebbbddbbabdcaaabeacbcbbaeddbabbdaaeaecedadcdedaabd") ))
(assert (= (str.++  "cadcbbbbdcbdeacbdceddcacaadbababdbbcaeebbabbdaebbcdcba" A "daecdabaabaeaabdacbacbabbbba")  (str.++  "cadcbbbbdcbdeacbdceddcacaadbababdbbcaeebbabbdaebbcdcbaedbdaecdabaabaeaabdacbacbabbbba" "") ))
(assert (= (str.++  "ebddedebeedcdbdaaaeeacdbddaaeddddecbdaeabddcbaadbbcbbbcbabdadbacbdebaeeadadcddeaaacec" "")  (str.++  "ebddedebe" H "dbdaaaeeacdbddaaeddddecbdaeabddcbaadbbcbbbcbabdadbacbdebaeeadadcddeaaacec") ))
(assert (= (str.++  "cddaabebbedbddbbdbcbddbdddbeaddeedecdeedeedaaeaadaceedbcdaacaabcbdbbabadaebceeeacbdbb" "")  (str.++  "cddaabebb" A "ddbbdbcbddbdddbeaddeedecdeedeedaaeaadaceedbcdaacaabcbdbbabadaebceeeacbdbb") ))
(assert (= (str.++  "caadabccedbeeababddecabbbdcceaebabcededbcbcacdbbddaedcaedabaaacbbbdbaecacebdbebdccdca" "")  (str.++  "caadabcc" A "eeababddecabbbdcceaebabcededbcbcacdbbdda" H "aedabaaacbbbdbaecacebdbebdccdca") ))
(assert (= (str.++  "bcbdbcdbbcecccaddae" H "beabeceacbceccc" A "adcdcebbceaecaadeedbebcedaecdaaccdcbcaaeccbae")  (str.++  "bcbdbcdbbcecccaddaeedcbeabeceacbceccc" A "adcdcebbceaecaade" A "ebcedaecdaaccdcbcaaeccbae") ))
(assert (= (str.++  "beacdbddcdaccbacadbeaacdedcbcaadbeabbcdbcdaaabdbbbebeaccdbdc" H "bdbbedacadeaccaabadbaa")  (str.++  "beacdbddcdaccbacadbeaacdedcbcaadbeabbcdbcdaaabdbbbebeaccdbdc" H "bdbbedacadeaccaabadbaa") ))
(assert (= (str.++  "dbaeccbccbd" H "aecdedabbdacaaacdcaceaabeeaabacabacbb" H "daaacadbbaaebeddadceabbecebdddb")  (str.++  "dbaeccbccbd" H "aecdedabbdacaaacdcaceaabeeaabacabacbbedcdaaacadbbaaebeddadceabbecebdddb") ))
(assert (= (str.++  "bedccdebceaecbeaccdaaabdcddecdabbcccdabbadabadcbcdaeaaccdccebbbddbcbdbddbbdeaeacccbbc" "")  (str.++  "b" H "cdebceaecbeaccdaaabdcddecdabbcccdabbadabadcbcdaeaaccdccebbbddbcbdbddbbdeaeacccbbc") ))
(assert (= (str.++  "edecaeeccabaadeabeaddccccecebdaeecdceadeaaebcbbbadaabbaccdbcceaceca" A "caaabacbbecdeeb")  (str.++  "edecaeeccabaadeabeaddccccecebdaeecdceadeaaebcbbbadaabbaccdbcceaceca" A "caaabacbbecdeeb") ))
(assert (= (str.++  "eaeabdaebdd" A "badbdeccdbcbcbeebbabccdbdcecbbabdabdabeadedadaeedaeacaadebddacaecadddea")  (str.++  "eaeabdaebdd" A "badbdeccdbcbcbeebbabccdbdcecbbabdabdabeadedadaeedaeacaadebddacaecadddea") ))
(assert (= (str.++  "ebdcbbcbaeaddcadacbdcbbebadeccebedbabeebbcdacbcaedadedaaeeacbdbebddebbdbbacbcaabcecda" "")  (str.++  "ebdcbbcbaeaddcadacbdcbbebadecceb" A "abeebbcdacbcaedadedaaeeacbdbebddebbdbbacbcaabcecda") ))
(assert (= (str.++  "bdddabedadbacdcbeaaeedadaaccaadbeaceacdccddddadeaadecdedbbbaceeacbaed" H "aadbcdccbbccd")  (str.++  "bdddabedadbacdcbeaaeedadaaccaadbeaceacdccddddadeaadecdedbbbaceeacbaed" H "aadbcdccbbccd") ))
(assert (= (str.++  "aadb" A "abcbeecbcbbbabaadeabaaccabbacacebbebcabcbeabbccdadcaeabbdbdaccddbbddceebebcced")  (str.++  "aadb" A "abcbeecbcbbbabaadeabaaccabbacacebbebcabcbeabbccdadcaeabbdbdaccddbbddceebebcced") ))
(assert (= (str.++  "dbbeadabe" A "badadebbddecbcbaecdbdbcaaedcedceebaebaaebeeaddebbdccdaddaadcdabaadbabcadd")  (str.++  "dbbeadabe" A "badadebbddecbcbaecdbdbcaa" H "edceebaebaaebeeaddebbdccdaddaadcdabaadbabcadd") ))
(assert (= (str.++  "cadeeccecbbaadddcbdaacbdcdaeaedaebeebcedeeedccdbdadcebecdababbcbebbcabcbbeddcde" H "bda")  (str.++  "cadeeccecbbaadddcbdaacbdcdaeaedaebeebcedee" H "cdbdadcebecdababbcbebbcabcbbeddcde" H "bda") ))
(assert (= (str.++  "beebabddbeebeeaacaabadbbcbacbadc" A "edebebbcaceceeaeadbcddcbddecccabdebaebdecdedaddbbb")  (str.++  "beebabddbeebeeaacaabadbbcbacbadcedbedebebbcaceceeaeadbcddcbddecccabdebaebdecdedaddbbb" "") ))
(assert (= (str.++  "adbeabcaeeeaadaceecedacebbdbdedcacadeeeadbdabcdcaadaaeaadbdeaaacaddbbddddcabcccdddbcd" "")  (str.++  "adbeabcaeeeaadaceecedacebbdbd" H "acadeeeadbdabcdcaadaaeaadbdeaaacaddbbddddcabcccdddbcd") ))
(assert (= (str.++  "ccbeacbcdbcadbdbdbecbadbeaabdddedcdcaaaacaaecbdadeecdcaedaaebebbbec" H "bbcabcbbdabdbce")  (str.++  "ccbeacbcdbcadbdbdbecbadbeaabdddedcdcaaaacaaecbdadeecdcaedaaebebbbec" H "bbcabcbbdabdbce") ))
(assert (= (str.++  "caabdcaceeae" A "cebdaebbaaebaaaebaebcccdcbccdcebceadaddccdbdeeeeddeaebdeebabeeeeaedbed")  (str.++  "caabdcaceeaeedbcebdaebbaaebaaaebaebcccdcbccdcebceadaddccdbdeeeeddeaebdeebabeeeea" A "ed") ))
(assert (= (str.++  "ddbdbdddbbcbcccbbaceb" H "abbdcbadcdcecddaeabaeddbddecdbdcecbebacabcecaecbeecebbcbcdbbc")  (str.++  "ddbdbdddbbcbcccbbacebedcabbdcbadcdcecddaeabaeddbddecdbdcecbebacabcecaecbeecebbcbcdbbc" "") ))
(assert (= (str.++  "ebccaeeabedccceaeaeceddbcaceacabaceeded" A "eccdddbcedabaccbeeccadaaeadecbcaddabdbaacea")  (str.++  "ebccaeeab" H "cceaeaeceddbcaceacabaceedededbeccdddbcedabaccbeeccadaaeadecbcaddabdbaacea") ))
(assert (= (str.++  "ebedebcbeaddaebacbbdeceeecebbcadddddcdccabb" H "ecddccbdbeabbbbcabbceedccdaaabceabceeee")  (str.++  "ebedebcbeaddaebacbbdeceeecebbcadddddcdccabbedcecddccbdbeabbbbcabbceedccdaaabceabceeee" "") ))
(assert (= (str.++  "bdacadacbeaacbebeaeedcdcbebceeceadedbedeeddceebcecbddaeacbedebbbaedeeabdcbbdbabeeacad" "")  (str.++  "bdacadacbeaacbebeaeedcdcbebceecead" A "edeeddceebcecbddaeacbedebbbaedeeabdcbbdbabeeacad") ))
(assert (= (str.++  "bdecdbcdaebabaadbccedadadacdaeedcadaedbdaabacdccbdecbddeadbadeebdeaceccaceedeebbceded" "")  (str.++  "bdecdbcdaebabaadbccedadadacdae" H "ada" A "daabacdccbdecbddeadbadeebdeaceccaceedeebbceded") ))
(assert (= (str.++  "bdbcadbdebeabdeacebb" A "dddbceceaebddcbebdaddbcacdbbecdbddaeabbdddcedeadbbadddceebbaaa")  (str.++  "bdbcadbdebeabdeacebb" A "dddbceceaebddcbebdaddbcacdbbecdbddaeabbdddcedeadbbadddceebbaaa") ))
(assert (= (str.++  "cbadaaadcdcbddeeedceeeaeadadebedbbadedeaccbbcedddeacbdbcebdcbecbdebaccdbbcdabbeeeaeed" "")  (str.++  "cbadaaadcdcbddee" H "eeeaeadadebedbbadedeaccbbcedddeacbdbcebdcbecbdebaccdbbcdabbeeeaeed") ))
(assert (= (str.++  "cabebdcaeebaeacdccbbbccdeaecebdeaaeeeacdadacbcaadbebcedbcaeaecaceecdeddeeebeebbcaeabd" "")  (str.++  "cabebdcaeebaeacdccbbbccdeaecebdeaaeeeacdadacbcaadbebc" A "caeaecaceecdeddeeebeebbcaeabd") ))
(assert (= (str.++  "aaaadbedeebdbbdcdebdcccddddccbceeceeeabccccbeeeecbcdccadbddbbdddddecadbdedcabccbeadbe" "")  (str.++  "aaaadbedeebdbbdcdebdcccddddccbceeceeeabccccbeeeecbcdccadbddbbdddddecadbd" H "abccbeadbe") ))
(assert (= (str.++  "abeedecbeedbdadbdabdcecdececeeacbdbaacddadcceeacbedddbeccdadbcdcceeccbbcdbbddddabcdee" "")  (str.++  "abeedecbe" A "dadbdabdcecdececeeacbdbaacddadcceeacbedddbeccdadbcdcceeccbbcdbbddddabcdee") ))
(assert (= (str.++  "bdbcadabdebddbaedabaddacbdaa" A "bbeccaceddaceadacecdadceccbedeadbcdeeddbcedcaadaddcadb")  (str.++  "bdbcadabdebddbaedabaddacbdaaedbbbeccaceddaceadacecdadceccbedeadbcdeeddbcedcaadaddcadb" "") ))
(check-sat)
(get-model)
